; SWAP3 SWAP1 DUP2 SWAP3 POP SWAP1 => DUP4 SWAP3 POP SWAP3
(set-option :produce-proofs true)
; 
(set-info :status unknown)
(declare-fun storage_t ((_ BitVec 256) (_ BitVec 256) (_ BitVec 256) (_ BitVec 256) Int (_ BitVec 256)) (_ BitVec 256))
(declare-fun storage_s ((_ BitVec 256) (_ BitVec 256) (_ BitVec 256) (_ BitVec 256) Int (_ BitVec 256)) (_ BitVec 256))
(declare-fun exc_halt_t (Int) Bool)
(declare-fun exc_halt_s (Int) Bool)
(declare-fun stack_t ((_ BitVec 256) (_ BitVec 256) (_ BitVec 256) (_ BitVec 256) Int (_ BitVec 6)) (_ BitVec 256))
(declare-fun stack_s ((_ BitVec 256) (_ BitVec 256) (_ BitVec 256) (_ BitVec 256) Int (_ BitVec 6)) (_ BitVec 256))
(declare-fun sc_t (Int) (_ BitVec 6))
(declare-fun sc_s (Int) (_ BitVec 6))
(declare-fun used_gas_t ((_ BitVec 256) (_ BitVec 256) (_ BitVec 256) (_ BitVec 256) Int) Int)
(declare-fun used_gas_s ((_ BitVec 256) (_ BitVec 256) (_ BitVec 256) (_ BitVec 256) Int) Int)
(assert
 (exists ((x_0 (_ BitVec 256)) (x_1 (_ BitVec 256)) (x_2 (_ BitVec 256)) (x_3 (_ BitVec 256)) )(let (($x3398 (forall ((w (_ BitVec 256)) )(let ((?x1894 (storage_t x_0 x_1 x_2 x_3 4 w)))
 (let ((?x9549 (storage_s x_0 x_1 x_2 x_3 6 w)))
 (= ?x9549 ?x1894))))
 ))
 (let (($x3723 (exc_halt_t 4)))
 (let (($x772 (exc_halt_s 6)))
 (let (($x9051 (= $x772 $x3723)))
 (let (($x9187 (forall ((n (_ BitVec 6)) )(let ((?x6358 (stack_t x_0 x_1 x_2 x_3 4 n)))
 (let ((?x2545 (stack_s x_0 x_1 x_2 x_3 6 n)))
 (let (($x6233 (= ?x2545 ?x6358)))
 (let ((?x3757 (sc_t 4)))
 (let (($x5939 (bvsle ?x3757 n)))
 (or $x5939 $x6233)))))))
 ))
 (let ((?x3757 (sc_t 4)))
 (let ((?x926 (sc_s 6)))
 (let (($x3561 (= ?x926 ?x3757)))
 (let ((?x1121 (used_gas_t x_0 x_1 x_2 x_3 0)))
 (let ((?x6132 (used_gas_s x_0 x_1 x_2 x_3 0)))
 (let (($x5728 (= ?x6132 ?x1121)))
 (let (($x2568 (forall ((w (_ BitVec 256)) )(let ((?x5424 (storage_t x_0 x_1 x_2 x_3 0 w)))
 (let ((?x4671 (storage_s x_0 x_1 x_2 x_3 0 w)))
 (= ?x4671 ?x5424))))
 ))
 (let (($x56 (exc_halt_t 0)))
 (let (($x57 (exc_halt_s 0)))
 (let (($x58 (= $x57 $x56)))
 (let (($x8267 (forall ((n (_ BitVec 6)) )(let ((?x1842 (stack_t x_0 x_1 x_2 x_3 0 n)))
 (let ((?x9018 (stack_s x_0 x_1 x_2 x_3 0 n)))
 (let (($x5119 (= ?x9018 ?x1842)))
 (let ((?x63 (sc_t 0)))
 (let (($x1361 (bvsle ?x63 n)))
 (or $x1361 $x5119)))))))
 ))
 (let ((?x63 (sc_t 0)))
 (let ((?x72 (sc_s 0)))
 (let (($x73 (= ?x72 ?x63)))
 (let (($x1014 (= $x3723 (or (exc_halt_t 3) (not (bvsle (_ bv0 6) (bvadd (_ bv60 6) (sc_t 3))))))))
 (let (($x307 (forall ((w (_ BitVec 256)) )(let ((?x10821 (storage_t x_0 x_1 x_2 x_3 3 w)))
 (let ((?x1894 (storage_t x_0 x_1 x_2 x_3 4 w)))
 (= ?x1894 ?x10821))))
 ))
 (let (($x836 (forall ((n (_ BitVec 6)) )(let ((?x3701 (stack_t x_0 x_1 x_2 x_3 3 n)))
 (let ((?x6358 (stack_t x_0 x_1 x_2 x_3 4 n)))
 (or (bvsle (bvadd (_ bv60 6) (sc_t 3)) n) (= ?x6358 ?x3701)))))
 ))
 (let ((?x2012 (sc_t 3)))
 (let (($x5944 (= ?x3757 ?x2012)))
 (let (($x9303 (= (used_gas_t x_0 x_1 x_2 x_3 4) (+ 3 (used_gas_t x_0 x_1 x_2 x_3 3)))))
 (let (($x8008 (= (stack_t x_0 x_1 x_2 x_3 4 (bvadd (_ bv62 6) ?x3757)) (stack_t x_0 x_1 x_2 x_3 3 (bvadd (_ bv62 6) ?x2012)))))
 (let (($x3250 (= (stack_t x_0 x_1 x_2 x_3 4 (bvadd (_ bv61 6) ?x3757)) (stack_t x_0 x_1 x_2 x_3 3 (bvadd (_ bv61 6) ?x2012)))))
 (let (($x10521 (= (stack_t x_0 x_1 x_2 x_3 4 (bvadd (_ bv60 6) ?x3757)) (stack_t x_0 x_1 x_2 x_3 3 (bvadd (_ bv63 6) ?x2012)))))
 (let (($x99 (= (stack_t x_0 x_1 x_2 x_3 4 (bvadd (_ bv63 6) ?x3757)) (stack_t x_0 x_1 x_2 x_3 3 (bvadd (_ bv60 6) ?x2012)))))
 (let (($x10336 (exc_halt_t 3)))
 (let (($x7951 (= $x10336 (or (exc_halt_t 2) (not (bvsle (_ bv0 6) (bvadd (_ bv63 6) (sc_t 2))))))))
 (let (($x3276 (forall ((w (_ BitVec 256)) )(let ((?x5446 (storage_t x_0 x_1 x_2 x_3 2 w)))
 (let ((?x10821 (storage_t x_0 x_1 x_2 x_3 3 w)))
 (= ?x10821 ?x5446))))
 ))
 (let (($x8666 (forall ((n (_ BitVec 6)) )(let ((?x4056 (sc_t 2)))
 (let ((?x1438 (bvadd (_ bv63 6) ?x4056)))
 (let (($x10875 (bvsle ?x1438 n)))
 (let ((?x5546 (stack_t x_0 x_1 x_2 x_3 2 n)))
 (let ((?x3701 (stack_t x_0 x_1 x_2 x_3 3 n)))
 (or (= ?x3701 ?x5546) $x10875)))))))
 ))
 (let ((?x8298 (used_gas_t x_0 x_1 x_2 x_3 3)))
 (let (($x903 (exc_halt_t 2)))
 (let (($x5576 (= $x903 (or (exc_halt_t 1) (not (bvsle (_ bv0 6) (bvadd (_ bv60 6) (sc_t 1))))))))
 (let (($x6159 (forall ((w (_ BitVec 256)) )(let ((?x7821 (storage_t x_0 x_1 x_2 x_3 1 w)))
 (let ((?x5446 (storage_t x_0 x_1 x_2 x_3 2 w)))
 (= ?x5446 ?x7821))))
 ))
 (let (($x6808 (forall ((n (_ BitVec 6)) )(let ((?x7505 (stack_t x_0 x_1 x_2 x_3 1 n)))
 (let ((?x5546 (stack_t x_0 x_1 x_2 x_3 2 n)))
 (or (bvsle (bvadd (_ bv60 6) (sc_t 1)) n) (= ?x5546 ?x7505)))))
 ))
 (let ((?x4023 (sc_t 1)))
 (let ((?x4056 (sc_t 2)))
 (let (($x6083 (= ?x4056 ?x4023)))
 (let ((?x8314 (used_gas_t x_0 x_1 x_2 x_3 2)))
 (let (($x1339 (= (stack_t x_0 x_1 x_2 x_3 2 (bvadd (_ bv62 6) ?x4056)) (stack_t x_0 x_1 x_2 x_3 1 (bvadd (_ bv62 6) ?x4023)))))
 (let (($x10802 (= (stack_t x_0 x_1 x_2 x_3 2 (bvadd (_ bv61 6) ?x4056)) (stack_t x_0 x_1 x_2 x_3 1 (bvadd (_ bv61 6) ?x4023)))))
 (let ((?x1843 (bvadd (_ bv63 6) ?x4023)))
 (let ((?x9029 (stack_t x_0 x_1 x_2 x_3 1 ?x1843)))
 (let (($x8253 (= (stack_t x_0 x_1 x_2 x_3 2 (bvadd (_ bv63 6) ?x4056)) (stack_t x_0 x_1 x_2 x_3 1 (bvadd (_ bv60 6) ?x4023)))))
 (let (($x6222 (not (= ((_ extract 6 6) (bvadd (_ bv1 7) (concat (_ bv0 1) ?x63))) (_ bv0 1)))))
 (let (($x1920 (exc_halt_t 1)))
 (let (($x3615 (forall ((w (_ BitVec 256)) )(let ((?x5424 (storage_t x_0 x_1 x_2 x_3 0 w)))
 (let ((?x7821 (storage_t x_0 x_1 x_2 x_3 1 w)))
 (= ?x7821 ?x5424))))
 ))
 (let (($x4932 (forall ((n (_ BitVec 6)) )(let ((?x1842 (stack_t x_0 x_1 x_2 x_3 0 n)))
 (let ((?x7505 (stack_t x_0 x_1 x_2 x_3 1 n)))
 (or (= ?x7505 ?x1842) (bvsle (bvadd (_ bv60 6) (sc_t 0)) n)))))
 ))
 (let (($x2669 (= ?x4023 (bvadd (_ bv1 6) ?x63))))
 (let (($x10771 (= (stack_t x_0 x_1 x_2 x_3 1 (bvadd (_ bv63 6) ?x63)) (stack_t x_0 x_1 x_2 x_3 0 (bvadd (_ bv63 6) ?x63)))))
 (let (($x3014 (= (stack_t x_0 x_1 x_2 x_3 1 (bvadd (_ bv62 6) ?x63)) (stack_t x_0 x_1 x_2 x_3 0 (bvadd (_ bv62 6) ?x63)))))
 (let (($x901 (= (stack_t x_0 x_1 x_2 x_3 1 (bvadd (_ bv61 6) ?x63)) (stack_t x_0 x_1 x_2 x_3 0 (bvadd (_ bv61 6) ?x63)))))
 (let ((?x177 (bvadd (_ bv60 6) ?x63)))
 (let ((?x9046 (stack_t x_0 x_1 x_2 x_3 0 ?x177)))
 (let (($x5221 (= $x772 (or (exc_halt_s 5) (not (bvsle (_ bv0 6) (bvadd (_ bv62 6) (sc_s 5))))))))
 (let (($x9003 (forall ((w (_ BitVec 256)) )(let ((?x1180 (storage_s x_0 x_1 x_2 x_3 5 w)))
 (let ((?x9549 (storage_s x_0 x_1 x_2 x_3 6 w)))
 (= ?x9549 ?x1180))))
 ))
 (let (($x942 (forall ((n (_ BitVec 6)) )(let ((?x805 (sc_s 5)))
 (let ((?x3372 (bvadd (_ bv62 6) ?x805)))
 (let (($x10965 (bvsle ?x3372 n)))
 (let ((?x6379 (stack_s x_0 x_1 x_2 x_3 5 n)))
 (let ((?x2545 (stack_s x_0 x_1 x_2 x_3 6 n)))
 (or (= ?x2545 ?x6379) $x10965)))))))
 ))
 (let ((?x805 (sc_s 5)))
 (let (($x8328 (= ?x926 ?x805)))
 (let (($x2541 (= (used_gas_s x_0 x_1 x_2 x_3 6) (+ 3 (used_gas_s x_0 x_1 x_2 x_3 5)))))
 (let (($x7106 (= (stack_s x_0 x_1 x_2 x_3 6 (bvadd (_ bv62 6) ?x926)) (stack_s x_0 x_1 x_2 x_3 5 (bvadd (_ bv63 6) ?x805)))))
 (let (($x8460 (= (stack_s x_0 x_1 x_2 x_3 6 (bvadd (_ bv63 6) ?x926)) (stack_s x_0 x_1 x_2 x_3 5 (bvadd (_ bv62 6) ?x805)))))
 (let (($x3979 (exc_halt_s 5)))
 (let (($x1664 (= $x3979 (or (exc_halt_s 4) (not (bvsle (_ bv0 6) (bvadd (_ bv63 6) (sc_s 4))))))))
 (let (($x9077 (forall ((w (_ BitVec 256)) )(let ((?x1055 (storage_s x_0 x_1 x_2 x_3 4 w)))
 (let ((?x1180 (storage_s x_0 x_1 x_2 x_3 5 w)))
 (= ?x1180 ?x1055))))
 ))
 (let (($x3163 (forall ((n (_ BitVec 6)) )(let ((?x3047 (stack_s x_0 x_1 x_2 x_3 4 n)))
 (let ((?x6379 (stack_s x_0 x_1 x_2 x_3 5 n)))
 (let ((?x4305 (sc_s 4)))
 (let ((?x3595 (bvadd (_ bv63 6) ?x4305)))
 (let (($x3093 (bvsle ?x3595 n)))
 (or $x3093 (= ?x6379 ?x3047))))))))
 ))
 (let ((?x4305 (sc_s 4)))
 (let ((?x3595 (bvadd (_ bv63 6) ?x4305)))
 (let (($x2634 (= ?x805 ?x3595)))
 (let ((?x6898 (used_gas_s x_0 x_1 x_2 x_3 5)))
 (let (($x64 (exc_halt_s 4)))
 (let (($x2419 (= $x64 (or (exc_halt_s 3) (not (bvsle (_ bv0 6) (bvadd (_ bv60 6) (sc_s 3))))))))
 (let (($x4101 (forall ((w (_ BitVec 256)) )(let ((?x5903 (storage_s x_0 x_1 x_2 x_3 3 w)))
 (let ((?x1055 (storage_s x_0 x_1 x_2 x_3 4 w)))
 (= ?x1055 ?x5903))))
 ))
 (let (($x3380 (forall ((n (_ BitVec 6)) )(let ((?x6053 (stack_s x_0 x_1 x_2 x_3 3 n)))
 (let ((?x3047 (stack_s x_0 x_1 x_2 x_3 4 n)))
 (or (= ?x3047 ?x6053) (bvsle (bvadd (_ bv60 6) (sc_s 3)) n)))))
 ))
 (let ((?x275 (sc_s 3)))
 (let (($x936 (= ?x4305 ?x275)))
 (let ((?x3838 (used_gas_s x_0 x_1 x_2 x_3 4)))
 (let (($x6973 (= (stack_s x_0 x_1 x_2 x_3 4 (bvadd (_ bv62 6) ?x4305)) (stack_s x_0 x_1 x_2 x_3 3 (bvadd (_ bv62 6) ?x275)))))
 (let (($x8619 (= (stack_s x_0 x_1 x_2 x_3 4 (bvadd (_ bv61 6) ?x4305)) (stack_s x_0 x_1 x_2 x_3 3 (bvadd (_ bv61 6) ?x275)))))
 (let ((?x9192 (bvadd (_ bv63 6) ?x275)))
 (let ((?x10002 (stack_s x_0 x_1 x_2 x_3 3 ?x9192)))
 (let (($x2928 (= (stack_s x_0 x_1 x_2 x_3 4 ?x3595) (stack_s x_0 x_1 x_2 x_3 3 (bvadd (_ bv60 6) ?x275)))))
 (let (($x11259 (not (= ((_ extract 6 6) (bvadd (_ bv1 7) (concat (_ bv0 1) (sc_s 2)))) (_ bv0 1)))))
 (let (($x247 (exc_halt_s 2)))
 (let (($x292 (exc_halt_s 3)))
 (let (($x5013 (= $x292 (or $x247 (not (bvsle (_ bv0 6) (bvadd (_ bv62 6) (sc_s 2)))) $x11259))))
 (let (($x1160 (forall ((w (_ BitVec 256)) )(let ((?x6895 (storage_s x_0 x_1 x_2 x_3 2 w)))
 (let ((?x5903 (storage_s x_0 x_1 x_2 x_3 3 w)))
 (= ?x5903 ?x6895))))
 ))
 (let (($x3742 (forall ((n (_ BitVec 6)) )(let ((?x218 (sc_s 2)))
 (let ((?x8691 (bvadd (_ bv62 6) ?x218)))
 (let (($x7875 (bvsle ?x8691 n)))
 (let ((?x8322 (stack_s x_0 x_1 x_2 x_3 2 n)))
 (let ((?x6053 (stack_s x_0 x_1 x_2 x_3 3 n)))
 (or (= ?x6053 ?x8322) $x7875)))))))
 ))
 (let (($x11338 (= ?x275 (bvadd (_ bv1 6) (sc_s 2)))))
 (let ((?x1231 (used_gas_s x_0 x_1 x_2 x_3 3)))
 (let ((?x218 (sc_s 2)))
 (let ((?x2961 (bvadd (_ bv63 6) ?x218)))
 (let ((?x9484 (stack_s x_0 x_1 x_2 x_3 2 ?x2961)))
 (let ((?x8691 (bvadd (_ bv62 6) ?x218)))
 (let ((?x5842 (stack_s x_0 x_1 x_2 x_3 2 ?x8691)))
 (let (($x10455 (= $x247 (or (exc_halt_s 1) (not (bvsle (_ bv0 6) (bvadd (_ bv62 6) (sc_s 1))))))))
 (let (($x8693 (forall ((w (_ BitVec 256)) )(let ((?x2674 (storage_s x_0 x_1 x_2 x_3 1 w)))
 (let ((?x6895 (storage_s x_0 x_1 x_2 x_3 2 w)))
 (= ?x6895 ?x2674))))
 ))
 (let (($x9235 (forall ((n (_ BitVec 6)) )(let ((?x2863 (stack_s x_0 x_1 x_2 x_3 1 n)))
 (let ((?x8322 (stack_s x_0 x_1 x_2 x_3 2 n)))
 (or (bvsle (bvadd (_ bv62 6) (sc_s 1)) n) (= ?x8322 ?x2863)))))
 ))
 (let ((?x154 (sc_s 1)))
 (let (($x5668 (= ?x218 ?x154)))
 (let ((?x4713 (used_gas_s x_0 x_1 x_2 x_3 2)))
 (let (($x4590 (forall ((w (_ BitVec 256)) )(let ((?x4671 (storage_s x_0 x_1 x_2 x_3 0 w)))
 (let ((?x2674 (storage_s x_0 x_1 x_2 x_3 1 w)))
 (= ?x2674 ?x4671))))
 ))
 (let (($x6440 (forall ((n (_ BitVec 6)) )(let ((?x9018 (stack_s x_0 x_1 x_2 x_3 0 n)))
 (let ((?x2863 (stack_s x_0 x_1 x_2 x_3 1 n)))
 (let ((?x72 (sc_s 0)))
 (let ((?x9113 (bvadd (_ bv60 6) ?x72)))
 (let (($x2719 (bvsle ?x9113 n)))
 (or $x2719 (= ?x2863 ?x9018))))))))
 ))
 (let (($x8029 (= ?x154 ?x72)))
 (let ((?x5785 (bvadd (_ bv62 6) ?x154)))
 (let ((?x7489 (stack_s x_0 x_1 x_2 x_3 1 ?x5785)))
 (let (($x999 (= (stack_s x_0 x_1 x_2 x_3 1 (bvadd (_ bv61 6) ?x154)) (stack_s x_0 x_1 x_2 x_3 0 (bvadd (_ bv61 6) ?x72)))))
 (let (($x142 (= (stack_s x_0 x_1 x_2 x_3 1 (bvadd (_ bv60 6) ?x154)) (stack_s x_0 x_1 x_2 x_3 0 (bvadd (_ bv63 6) ?x72)))))
 (let ((?x11219 (bvadd (_ bv63 6) ?x154)))
 (let ((?x8334 (stack_s x_0 x_1 x_2 x_3 1 ?x11219)))
 (let (($x7688 (forall ((w (_ BitVec 256)) )(let ((?x4671 (storage_s x_0 x_1 x_2 x_3 0 w)))
 (= ?x4671 (_ bv0 256))))
 ))
 (let (($x3780 (= ?x6132 0)))
 (let (($x11411 (not $x57)))
 (let (($x904 (= (stack_s x_0 x_1 x_2 x_3 0 (_ bv3 6)) x_3)))
 (let (($x8882 (= (stack_s x_0 x_1 x_2 x_3 0 (_ bv2 6)) x_2)))
 (let (($x2170 (= (stack_s x_0 x_1 x_2 x_3 0 (_ bv1 6)) x_1)))
 (let (($x8930 (= (stack_s x_0 x_1 x_2 x_3 0 (_ bv0 6)) x_0)))
 (let (($x3447 (= ?x72 (_ bv4 6))))
 (and $x3447 $x8930 $x2170 $x8882 $x904 $x11411 $x3780 $x7688 (= ?x8334 (stack_s x_0 x_1 x_2 x_3 0 (bvadd (_ bv60 6) ?x72))) $x142 $x999 (= ?x7489 (stack_s x_0 x_1 x_2 x_3 0 (bvadd (_ bv62 6) ?x72))) (= (used_gas_s x_0 x_1 x_2 x_3 1) (+ 3 ?x6132)) $x8029 $x6440 $x4590 (= (exc_halt_s 1) (or $x57 (not (bvsle (_ bv0 6) (bvadd (_ bv60 6) ?x72))))) (= ?x9484 ?x7489) (= ?x5842 ?x8334) (= ?x4713 (+ 3 (used_gas_s x_0 x_1 x_2 x_3 1))) $x5668 $x9235 $x8693 $x10455 (= ?x10002 ?x5842) (= (stack_s x_0 x_1 x_2 x_3 3 ?x8691) ?x5842) (= (stack_s x_0 x_1 x_2 x_3 3 ?x2961) ?x9484) (= ?x1231 (+ 3 ?x4713)) $x11338 $x3742 $x1160 $x5013 $x2928 (= (stack_s x_0 x_1 x_2 x_3 4 (bvadd (_ bv60 6) ?x4305)) ?x10002) $x8619 $x6973 (= ?x3838 (+ 3 ?x1231)) $x936 $x3380 $x4101 $x2419 (= ?x6898 (+ 2 ?x3838)) $x2634 $x3163 $x9077 $x1664 $x8460 $x7106 $x2541 $x8328 $x942 $x9003 $x5221 (= ?x9029 ?x9046) (= (stack_t x_0 x_1 x_2 x_3 1 ?x177) ?x9046) $x901 $x3014 $x10771 (= (used_gas_t x_0 x_1 x_2 x_3 1) (+ 3 ?x1121)) $x2669 $x4932 $x3615 (= $x1920 (or $x56 $x6222 (not (bvsle (_ bv0 6) ?x177)))) $x8253 (= (stack_t x_0 x_1 x_2 x_3 2 (bvadd (_ bv60 6) ?x4056)) ?x9029) $x10802 $x1339 (= ?x8314 (+ 3 (used_gas_t x_0 x_1 x_2 x_3 1))) $x6083 $x6808 $x6159 $x5576 (= ?x8298 (+ 2 ?x8314)) (= ?x2012 (bvadd (_ bv63 6) ?x4056)) $x8666 $x3276 $x7951 $x99 $x10521 $x3250 $x8008 $x9303 $x5944 $x836 $x307 $x1014 $x73 $x8267 $x58 $x2568 $x5728 (not (and $x3561 $x9187 $x9051 $x3398)))))))))))))))))))))))))))))))))))))))))))))))))))))))))))))))))))))))))))))))))))))))))))))))))))))))))))))))))))))))))))))
 )
(check-sat)
(get-proof)
